NAME: ft53
TYPE: ATSP
COMMENT: Asymmetric TSP (Fischetti)
DIMENSION: 4
EDGE_WEIGHT_TYPE: EXPLICIT
EDGE_WEIGHT_FORMAT: FULL_MATRIX 
EDGE_WEIGHT_SECTION
   9999999 1 15  6
   2 9999999  7  3
   9 6  9999999 12
  10 4  8  9999999
EOF
